Minimize
  - 96 y_0 - 42 y_1 - 70 y_2 - 78 y_3 - 60 y_4 - 46 y_5 - 77 y_6 - 71 y_7
   - 74 y_9 - 25 y_10 - 35 y_11 - 103 y_12 - 36 y_13 - 82 y_14 - 83 y_15
   - 68 y_16 - 58 y_17 - 53 y_18 - 65 y_19 + 1222 Constant
Subject To
 c_0: y_13 = 1
 c_1_0: y_0 >= 1
 c_1_1: y_1 >= 1
 c_1_2: y_2 + y_7 >= 1
 c_1_3: y_3 >= 1
 c_1_4: y_4 >= 1
 c_1_5: y_5 >= 1
 c_1_6: y_6 + y_14 >= 1
 c_1_7: y_2 + y_7 + y_9 >= 1
 c_1_8: y_8 >= 1
 c_1_9: y_7 + y_9 >= 1
 c_1_10: y_10 >= 1
 c_1_11: y_11 >= 1
 c_1_12: y_12 >= 1
 c_1_13: y_13 >= 1
 c_1_14: y_6 + y_14 >= 1
 c_1_15: y_15 >= 1
 c_1_16: y_16 + y_19 >= 1
 c_1_17: y_17 >= 1
 c_1_18: y_18 >= 1
 c_1_19: y_16 + y_19 >= 1
Bounds
 Constant = 1
Binaries
 y_0 y_1 y_2 y_3 y_4 y_5 y_6 y_7 y_8 y_9 y_10 y_11 y_12 y_13 y_14 y_15 y_16
 y_17 y_18 y_19
End
